Problem:    
Rows:       256
Columns:    89 (72 integer, 72 binary)
Non-zeros:  800
Status:     INTEGER OPTIMAL
Objective:  value = 4.382699 (MINimum)

   No.   Row name        Activity     Lower bound   Upper bound
------ ------------    ------------- ------------- -------------
     1 r.5                   1004.38             0               
     2 r.6                  -998.767      -999.579               
     3 r.7                    4.3827             0               
     4 r.8                   1.23292      -998.984               
     5 r.9                    4.3827             0               
     6 r.10                  3.32525      -999.464               
     7 r.11                  1004.38             0               
     8 r.12                 -998.436      -998.676               
     9 r.13                   4.3827             0               
    10 r.14                  3.32525      -999.486               
    11 r.15                  1004.38             0               
    12 r.16                 -996.675       -998.81               
    13 r.17                   4.3827             0               
    14 r.18                  2.13535      -999.746               
    15 r.19                  1004.38             0               
    16 r.20                 -997.865      -999.429               
    17 r.21                  1004.38             0               
    18 r.22                 -999.284      -999.524               
    19 r.23                   4.3827             0               
    20 r.24                  1.23292      -999.007               
    21 r.25                   4.3827             0               
    22 r.26                 0.240167      -999.676               
    23 r.27                  1004.38             0               
    24 r.28                  -999.76       -999.76               
    25 r.29                  1004.38             0               
    26 r.30                 -995.617       -996.85               
    27 r.31                   4.3827             0               
    28 r.32                   4.3827      -991.346               
    29 r.33                   4.3827             0               
    30 r.34                   4.3827      -999.328               
    31 r.35                  1004.38             0               
    32 r.36                 -995.617      -998.943               
    33 r.37                        1             1             = 
    34 r.38                        1             1             = 
    35 r.39                        1             1             = 
    36 r.40                        1             1             = 
    37 r.41                        1             1             = 
    38 r.42                        1             1             = 
    39 r.43                        1             1             = 
    40 r.44                        1             1             = 
    41 r.45                     1001             2               
    42 r.46                    -1001         -1001               
    43 r.47                  2002.09      -999.464               
    44 r.48                     1001             2               
    45 r.49                    -1001         -1001               
    46 r.50                  2000.33      -998.676               
    47 r.51                     1001             2               
    48 r.52                    -1001         -1001               
    49 r.53                  2002.09      -999.486               
    50 r.54                     1001             2               
    51 r.55                    -1001         -1001               
    52 r.56                  2002.09       -998.81               
    53 r.57                     1001             2               
    54 r.58                    -1001         -1001               
    55 r.59                   2000.9      -999.746               
    56 r.60                     1001             2               
    57 r.61                    -1001         -1001               
    58 r.62                   2000.9      -999.429               
    59 r.63                        2             2               
    60 r.64                       -2         -1001               
    61 r.65                -0.516979      -999.524               
    62 r.66                     1000             2               
    63 r.67                    -1000         -1001               
    64 r.68                     2000      -999.007               
    65 r.69                 -999.007      -999.579               
    66 r.70                 0.992754      -998.984               
    67 r.71                 -999.007      -999.579               
    68 r.72                 0.992754      -998.984               
    69 r.73                  -996.85       -996.85               
    70 r.74                  3.14978      -991.346               
    71 r.75                  -996.85       -996.85               
    72 r.76                  3.14978      -991.346               
    73 r.77                     1001             2               
    74 r.78                    -1001         -1001               
    75 r.79                  2003.15      -999.328               
    76 r.80                     1001             2               
    77 r.81                    -1001         -1001               
    78 r.82                  2003.15      -998.943               
    79 r.83                     1001             2               
    80 r.84                    -1001         -1001               
    81 r.85                  1997.91      0.420706               
    82 r.86                     1001             2               
    83 r.87                    -1001         -1001               
    84 r.88                  1999.67       1.01587               
    85 r.89                     1000             2               
    86 r.90                    -1000         -1001               
    87 r.91                     2000      -999.486               
    88 r.92                        2             2               
    89 r.93                       -2         -1001               
    90 r.94                 -998.239       -998.81               
    91 r.95                     1000             2               
    92 r.96                    -1000         -1001               
    93 r.97                  1998.81      -999.746               
    94 r.98                        2             2               
    95 r.99                       -2         -1001               
    96 r.100                -999.429      -999.429               
    97 r.101                    1001             2               
    98 r.102                   -1001         -1001               
    99 r.103                 1997.39      -999.524               
   100 r.104                    1001             2               
   101 r.105                   -1001         -1001               
   102 r.106                 1999.67      -999.007               
   103 r.107                 3.08508      -999.464               
   104 r.108                -998.676      -998.676               
   105 r.109                 3.08508      -999.464               
   106 r.110                -998.676      -998.676               
   107 r.111                    1001             2               
   108 r.112                   -1001         -1001               
   109 r.113                 2001.06       -996.85               
   110 r.114                    1001             2               
   111 r.115                   -1001         -1001               
   112 r.116                 2002.82      -991.346               
   113 r.117                 1.05745      -999.328               
   114 r.118                -998.943      -998.943               
   115 r.119                 2.81835      -999.328               
   116 r.120                -997.182      -998.943               
   117 r.121                    1001             2               
   118 r.122                   -1001         -1001               
   119 r.123                 1997.91      0.420706               
   120 r.124                    1001             2               
   121 r.125                   -1001         -1001               
   122 r.126                 1997.91       1.01587               
   123 r.127                    1000             2               
   124 r.128                   -1000         -1001               
   125 r.129                    2000      0.536275               
   126 r.130                       2             2               
   127 r.131                      -2         -1001               
   128 r.132                 998.239       1.32418               
   129 r.133                  1.1899      -999.486               
   130 r.134                 -998.81       -998.81               
   131 r.135                  1.1899      -999.486               
   132 r.136                 -998.81       -998.81               
   133 r.137                    1001             2               
   134 r.138                   -1001         -1001               
   135 r.139                 1997.39      -999.524               
   136 r.140                    1001             2               
   137 r.141                   -1001         -1001               
   138 r.142                 1997.91      -999.007               
   139 r.143                 3.08508      -999.486               
   140 r.144                -996.915       -998.81               
   141 r.145                 3.08508      -999.486               
   142 r.146                -996.915       -998.81               
   143 r.147                    1001             2               
   144 r.148                   -1001         -1001               
   145 r.149                 2001.06       -996.85               
   146 r.150                    1001             2               
   147 r.151                   -1001         -1001               
   148 r.152                 2001.06      -991.346               
   149 r.153                 1.05745      -999.328               
   150 r.154                -998.943      -998.943               
   151 r.155                 1.05745      -999.328               
   152 r.156                -998.943      -998.943               
   153 r.157                    1001             2               
   154 r.158                   -1001         -1001               
   155 r.159                  1999.1      0.420706               
   156 r.160                    1001             2               
   157 r.161                   -1001         -1001               
   158 r.162                  1999.1       1.01587               
   159 r.163                    1000             2               
   160 r.164                   -1000         -1001               
   161 r.165                 2001.19      0.536275               
   162 r.166                       2             2               
   163 r.167                      -2         -1001               
   164 r.168                 999.429       1.32418               
   165 r.169                    1001             2               
   166 r.170                   -1001         -1001               
   167 r.171                 1998.58      -999.524               
   168 r.172                    1001             2               
   169 r.173                   -1001         -1001               
   170 r.174                  1999.1      -999.007               
   171 r.175                 1.89518      -999.746               
   172 r.176                -998.105      -999.429               
   173 r.177                 1.89518      -999.746               
   174 r.178                -998.105      -999.429               
   175 r.179                    1001             2               
   176 r.180                   -1001         -1001               
   177 r.181                 2002.25       -996.85               
   178 r.182                    1001             2               
   179 r.183                   -1001         -1001               
   180 r.184                 2002.25      -991.346               
   181 r.185                 2.24735      -999.328               
   182 r.186                -997.753      -998.943               
   183 r.187                 2.24735      -999.328               
   184 r.188                -997.753      -998.943               
   185 r.189                       2             2               
   186 r.190                      -2         -1001               
   187 r.191                0.516979      0.420706               
   188 r.192                    1000             2               
   189 r.193                   -1000         -1001               
   190 r.194                    2000       1.01587               
   191 r.195                    1001             2               
   192 r.196                   -1001         -1001               
   193 r.197                 2002.61      0.536275               
   194 r.198                    1001             2               
   195 r.199                   -1001         -1001               
   196 r.200                 2000.33       1.32418               
   197 r.201                    1001             2               
   198 r.202                   -1001         -1001               
   199 r.203                 2002.61      0.513731               
   200 r.204                    1001             2               
   201 r.205                   -1001         -1001               
   202 r.206                 2002.09        1.1899               
   203 r.207                    1001             2               
   204 r.208                   -1001         -1001               
   205 r.209                 2001.42      0.253569               
   206 r.210                    1001             2               
   207 r.211                   -1001         -1001               
   208 r.212                  2000.9      0.570994               
   209 r.213                -999.524      -999.524               
   210 r.214                0.992754      -999.007               
   211 r.215                -999.524      -999.524               
   212 r.216                0.992754      -999.007               
   213 r.217                -996.333       -996.85               
   214 r.218                 3.66676      -991.346               
   215 r.219                 -996.85       -996.85               
   216 r.220                 3.14978      -991.346               
   217 r.221                 3.66676      -999.328               
   218 r.222                -996.333      -998.943               
   219 r.223                 3.14978      -999.328               
   220 r.224                 -996.85      -998.943               
   221 r.225                    1001             2               
   222 r.226                   -1001         -1001               
   223 r.227                 1998.94      0.536275               
   224 r.228                    1001             2               
   225 r.229                   -1001         -1001               
   226 r.230                 1997.18       1.32418               
   227 r.231                    1001             2               
   228 r.232                   -1001         -1001               
   229 r.233                 1998.94      0.513731               
   230 r.234                    1001             2               
   231 r.235                   -1001         -1001               
   232 r.236                 1998.94        1.1899               
   233 r.237                    1001             2               
   234 r.238                   -1001         -1001               
   235 r.239                 1997.75      0.253569               
   236 r.240                    1001             2               
   237 r.241                   -1001         -1001               
   238 r.242                 1997.75      0.570994               
   239 r.243                    1001             2               
   240 r.244                   -1001         -1001               
   241 r.245                    2000      -999.328               
   242 r.246                    1001             2               
   243 r.247                   -1001         -1001               
   244 r.248                    2000      -998.943               
   245 r.249                    1001             2               
   246 r.250                   -1001         -1001               
   247 r.251                 1996.85      0.420706               
   248 r.252                    1001             2               
   249 r.253                   -1001         -1001               
   250 r.254                 1996.85       1.01587               
   251 r.255                    1001             2               
   252 r.256                   -1001         -1001               
   253 r.257                    2000       3.14978               
   254 r.258                    1001             2               
   255 r.259                   -1001         -1001               
   256 r.260                    2000       8.65367               

   No. Column name       Activity     Lower bound   Upper bound
------ ------------    ------------- ------------- -------------
     1 tt                     4.3827             0               
     2 s_1_1        *              1             0             1 
     3 t_1_1                 3.14978             0               
     4 s_1_7        *              1             0             1 
     5 s_2_1        *              0             0             1 
     6 t_2_1                 3.14978             0               
     7 s_2_7        *              0             0             1 
     8 s_1_2        *              0             0             1 
     9 t_1_2                 1.05745             0               
    10 s_1_8        *              0             0             1 
    11 s_2_2        *              1             0             1 
    12 t_2_2                 2.81835             0               
    13 s_2_8        *              1             0             1 
    14 s_1_3        *              0             0             1 
    15 t_1_3                 1.05745             0               
    16 s_2_3        *              1             0             1 
    17 t_2_3                 1.05745             0               
    18 s_1_4        *              0             0             1 
    19 t_1_4                 2.24735             0               
    20 s_2_4        *              1             0             1 
    21 t_2_4                 2.24735             0               
    22 s_1_5        *              1             0             1 
    23 t_1_5                 3.66676             0               
    24 s_2_5        *              0             0             1 
    25 t_2_5                 3.14978             0               
    26 s_1_6        *              0             0             1 
    27 t_1_6                 4.14253             0               
    28 s_2_6        *              1             0             1 
    29 t_2_6                 4.14253             0               
    30 t_1_7                       0             0               
    31 t_2_7                       0             0               
    32 t_1_8                       0             0               
    33 t_2_8                       0             0               
    34 r_1_1_2      *              1             0             1 
    35 u_1_1_2      *              0             0             1 
    36 r_2_1_2      *              1             0             1 
    37 u_2_1_2      *              0             0             1 
    38 r_1_1_3      *              1             0             1 
    39 u_1_1_3      *              0             0             1 
    40 r_2_1_3      *              1             0             1 
    41 u_2_1_3      *              0             0             1 
    42 r_1_1_4      *              1             0             1 
    43 u_1_1_4      *              0             0             1 
    44 r_2_1_4      *              1             0             1 
    45 u_2_1_4      *              0             0             1 
    46 r_1_1_5      *              0             0             1 
    47 u_1_1_5      *              0             0             1 
    48 r_2_1_5      *              1             0             1 
    49 u_2_1_5      *              0             0             1 
    50 r_1_1_8      *              1             0             1 
    51 u_1_1_8      *              0             0             1 
    52 r_2_1_8      *              1             0             1 
    53 u_2_1_8      *              0             0             1 
    54 r_1_2_3      *              1             0             1 
    55 u_1_2_3      *              0             0             1 
    56 r_2_2_3      *              0             0             1 
    57 u_2_2_3      *              1             0             1 
    58 r_1_2_4      *              1             0             1 
    59 u_1_2_4      *              0             0             1 
    60 r_2_2_4      *              0             0             1 
    61 u_2_2_4      *              1             0             1 
    62 r_1_2_5      *              1             0             1 
    63 u_1_2_5      *              0             0             1 
    64 r_2_2_5      *              1             0             1 
    65 u_2_2_5      *              0             0             1 
    66 r_1_2_7      *              1             0             1 
    67 u_1_2_7      *              0             0             1 
    68 r_2_2_7      *              1             0             1 
    69 u_2_2_7      *              0             0             1 
    70 r_1_3_5      *              1             0             1 
    71 u_1_3_5      *              0             0             1 
    72 r_2_3_5      *              1             0             1 
    73 u_2_3_5      *              0             0             1 
    74 r_1_3_7      *              1             0             1 
    75 u_1_3_7      *              0             0             1 
    76 r_2_3_7      *              1             0             1 
    77 u_2_3_7      *              0             0             1 
    78 r_1_4_5      *              1             0             1 
    79 u_1_4_5      *              0             0             1 
    80 r_2_4_5      *              1             0             1 
    81 u_2_4_5      *              0             0             1 
    82 r_1_4_7      *              1             0             1 
    83 u_1_4_7      *              0             0             1 
    84 r_2_4_7      *              1             0             1 
    85 u_2_4_7      *              0             0             1 
    86 r_1_7_8      *              1             0             1 
    87 u_1_7_8      *              0             0             1 
    88 r_2_7_8      *              1             0             1 
    89 u_2_7_8      *              0             0             1 

Integer feasibility conditions:

KKT.PE: max.abs.err = 2.27e-13 on row 93
        max.rel.err = 5.68e-17 on row 93
        High quality

KKT.PB: max.abs.err = 0.00e+00 on row 0
        max.rel.err = 0.00e+00 on row 0
        High quality

End of output
